CapLotSizing_PM/src/Instancias/TCLSLT/6i18p4m/NBB07.dat
6 18 4
 1
       648
       648
       648
       648
    2
     4
     3
     3
     3
     3
   1.8  47.2   429    23 
  1.2  42.9   399    22 
  2.2  48.0   369    24 
  4.9  39.1   873    22 
  1.2  25.1   165    23 
  2.4  28.6   224    24 
  1.7  41.5   190    16 
  1.9  25.9   892    25 
  3.8  40.8   444    22 
  3.5  16.3   293    18 
  4.1  44.5   699    23 
  1.1  31.3   527    23 
  4.1  16.6   341    21 
  4.9  17.9   797    16 
  4.4  35.6   540    24 
  4.4  26.5   504    19 
  4.0  23.2   220    20 
  2.4  28.0   392    16 
  4.2  48.2   460    18 
  2.7  44.4   343    24 
  3.0  35.5   706    21 
  1.3  48.5   767    25 
  3.6  39.4   460    19 
  1.5  15.6   734    22 
   13    55   119   133   125    66 
    6   111    51    61   148    33 
   73    53   166    98    57    94 
  171   175   132   166    66   124 
  115   109    45    12    57   178 
   50   115     0   147   124    61 
  158    30   141    33   178   142 
   61   115   105   144    70    48 
  128    26    47    46    83   115 
   47    31     6    94    87    63 
  104    32   165    44    91    80 
  143   124     6    63   177    55 
  168   170    83    56   105   134 
  137    61    34    45   117   177 
    3   120    80   121     9    30 
  163    89    53   108   160    42 
  135   159   164   147   105   123 
   62   132   151    12   103   154 
