CapLotSizing_PM/src/Instancias/TCLSLT/6i18p4m/NBB07.OUT
 CG ITER, OVMR, OVMRUB =           1   27244.1875000   24568.6074219
 CG ITER, OVMR, OVMRUB =           2   24568.6113281   24568.6074219
 CG ITER, OVMR, OVMRUB =           3   24568.6074219   24568.6074219
 CG ITER, OVMR, OVMRUB =           4   24568.6074219   24568.6074219
 CG ITER, OVMR, OVMRUB =           5   24568.6132812   24568.6074219
 CG ITER, OVMR, OVMRUB =           6   24568.6074219   24568.6074219
 CG ITER, OVMR, OVMRUB =           7   23972.9980469   24568.6074219
 CG ITER, OVMR, OVMRUB =           8   24402.5175781   24568.6074219
 CG ITER, OVMR, OVMRUB =           9   24473.9667969   24568.6074219
 CG ITER, OVMR, OVMRUB =          10   24446.6601562   24568.6074219
 CG ITER, OVMR, OVMRUB =          11   22375.6562500   24568.6074219
 CG ITER, OVMR, OVMRUB =          12   22535.5078125   24568.6074219
 CG ITER, OVMR, OVMRUB =          13   21223.9492188   24568.6074219
 CG ITER, OVMR, OVMRUB =          14   21296.8066406   24568.6074219
 CG ITER, OVMR, OVMRUB =          15   20751.1992188   24568.6074219
 CG ITER, OVMR, OVMRUB =          16   20708.4628906   24568.6074219
 CG ITER, OVMR, OVMRUB =          17   20669.8808594   24568.6074219
 CG ITER, OVMR, OVMRUB =          18   20612.8007812   24568.6074219
 CG ITER, OVMR, OVMRUB =          19   20681.6464844   24568.6074219
 CG ITER, OVMR, OVMRUB =          20   20677.5117188   24568.6074219
 CG ITER, OVMR, OVMRUB =          21   20642.9101562   24568.6074219
 CG ITER, OVMR, OVMRUB =          22   20708.1386719   24568.6074219
 CG ITER, OVMR, OVMRUB =          23   20782.9238281   24568.6074219
 CG ITER, OVMR, OVMRUB =          24   20850.9667969   24568.6074219
 CG ITER, OVMR, OVMRUB =          25   20922.8105469   24568.6074219
 CG ITER, OVMR, OVMRUB =          26   20986.9218750   24568.6074219
 CG ITER, OVMR, OVMRUB =          27   21039.2187500   24568.6074219
 CG ITER, OVMR, OVMRUB =          28   21102.8476562   24568.6074219
 CG ITER, OVMR, OVMRUB =          29   21156.2285156   24568.6074219
 CG ITER, OVMR, OVMRUB =          30   21208.5937500   24568.6074219
 CG ITER, OVMR, OVMRUB =          31   21264.7109375   24568.6074219
 CG ITER, OVMR, OVMRUB =          32   21304.1621094   24325.6679688
 CG ITER, OVMR, OVMRUB =          33   21350.5078125   24325.6679688
 CG ITER, OVMR, OVMRUB =          34   21388.4648438   24325.6679688
 CG ITER, OVMR, OVMRUB =          35   21394.0449219   24325.6679688
 CG ITER, OVMR, OVMRUB =          36   21428.8457031   24325.6679688
 CG ITER, OVMR, OVMRUB =          37   21453.5371094   24325.6679688
 CG ITER, OVMR, OVMRUB =          38   21465.0292969   24325.6679688
 CG ITER, OVMR, OVMRUB =          39   21481.8906250   24325.6679688
 CG ITER, OVMR, OVMRUB =          40   21484.8027344   24325.6679688
 CG ITER, OVMR, OVMRUB =          41   21486.7753906   24325.6679688
 CG ITER, OVMR, OVMRUB =          42   21492.2753906   24325.6679688
 CG ITER, OVMR, OVMRUB =          43   21493.9726562   24325.6679688
 CG ITER, OVMR, OVMRUB =          44   21491.6816406   24325.6679688
 CG ITER, OVMR, OVMRUB =          45   21488.0546875   24325.6679688
 CG ITER, OVMR, OVMRUB =          46   21493.0898438   24325.6679688
 CG ITER, OVMR, OVMRUB =          47   21498.1386719   24325.6679688
 CG ITER, OVMR, OVMRUB =          48   21506.9003906   24325.6679688
 CG ITER, OVMR, OVMRUB =          49   21515.1171875   24325.6679688
 CG ITER, OVMR, OVMRUB =          50   21520.0859375   24121.5781250
 CG ITER, OVMR, OVMRUB =          51   21524.8398438   24121.5781250
 CG ITER, OVMR, OVMRUB =          52   21531.6953125   24121.5781250
 CG ITER, OVMR, OVMRUB =          53   21533.4355469   24121.5781250
 CG ITER, OVMR, OVMRUB =          54   21538.3886719   24121.5781250
 CG ITER, OVMR, OVMRUB =          55   21540.8671875   24121.5781250
 CG ITER, OVMR, OVMRUB =          56   21543.5136719   24121.5781250
 CG ITER, OVMR, OVMRUB =          57   21547.1718750   24121.5781250
 CG ITER, OVMR, OVMRUB =          58   21552.0878906   24121.5781250
 CG ITER, OVMR, OVMRUB =          59   21552.0878906   24121.5781250
OVLB =   21552.0878906 OVLUB =   24121.5781250 TIME =      10.7700005
